32      4       
15      21      11      13      
0       0       0       0       0       3       2       3       4       
1       0       1       0       0       3       9       14      22      
6       0       7       0       0       3       5       13      25      
1       0       0       6       0       2       7       24      
5       0       7       0       0       2       6       10      
3       0       7       0       0       3       8       19      22      
1       7       0       0       0       3       11      12      18      
7       1       0       0       0       2       16      21      
7       0       0       0       3       2       17      30      
4       0       0       0       4       1       31      
5       0       0       0       2       1       27      
3       0       0       4       0       1       16      
7       0       0       4       0       2       15      29      
3       9       0       0       0       1       27      
2       0       0       0       10      1       22      
1       0       0       6       0       1       20      
5       0       10      0       0       1       28      
9       7       0       0       0       1       23      
7       7       0       0       0       1       27      
10      0       0       1       0       1       26      
7       8       0       0       0       1       26      
1       0       0       0       4       1       24      
9       9       0       0       0       2       26      30      
2       0       0       0       9       1       31      
4       0       8       0       0       1       30      
10      0       0       6       0       2       28      29      
10      0       0       7       0       1       28      
9       0       0       0       2       1       31      
5       9       0       0       0       1       32      
5       0       0       0       9       1       32      
9       0       0       0       8       1       32      
0       0       0       0       0       0       